
--- Job 6_node_3_only_M.gms Start 01/08/22 16:32:28 34.2.0 r6925a71 WEX-WEI x86 64bit/MS Windows
--- Applying:
    C:\GAMS\34\gmsprmNT.txt
--- GAMS Parameters defined
    Input "Z:\MitarbeiterOrdner\Bernecker\GitHub Desktop Project Foulder\SARO-Dunkelflaute\ARO_6nodeTest\6_node_3_only_M.gms"
    PageSize 0
    ScrDir "Z:\MitarbeiterOrdner\Bernecker\GitHub Desktop Project Foulder\SARO-Dunkelflaute\ARO_6nodeTest\225a\"
    SysDir C:\GAMS\34\
    LogOption 3
    ErrMsg 1
    ErrorLog 99
    IDE 1
    LstTitleLeftAligned 1
Licensee: Small MUD - 5 User License                     S201118/0001AN-WIN
          BTU Cottbus-Senftenberg, FG Energiewirtschaft              DC5591
          C:\Users\berne\Documents\GAMS\gamslice.txt
GAMS 34.2.0   Copyright (C) 1987-2021 GAMS Development. All rights reserved
--- Starting compilation
--- 6_node_3_only_M.gms(228) 3 Mb
--- Starting execution: elapsed 0:00:00.546
--- Generating MIP model Master
--- 6_node_3_only_M.gms(227) 4 Mb
---   1,515 rows  632 columns  3,902 non-zeroes
---   6 discrete-columns
--- Executing CPLEX (Solvelink=2): elapsed 0:00:02.835

IBM ILOG CPLEX   34.2.0 r6925a71 Released Feb 05, 2021 WEI x86 64bit/MS Window

--- GAMS/Cplex Link licensed for continuous and discrete problems.
--- Space for names approximately 0.06 Mb
--- Use option 'names no' to turn use of names off
--- GMO memory 0.74 Mb (peak 0.75 Mb)
--- Dictionary memory 0.00 Mb
--- Cplex 20.1.0.0 link memory 0.03 Mb (peak 0.15 Mb)
--- Starting Cplex

Version identifier: 20.1.0.0 | 2020-11-10 | 9bedb6d68
CPXPARAM_Advance                                 0
CPXPARAM_Threads                                 1
CPXPARAM_MIP_Display                             4
CPXPARAM_MIP_Tolerances_AbsMIPGap                0
Generic callback                                 0x50
Tried aggregator 2 times.
MIP Presolve eliminated 721 rows and 74 columns.
MIP Presolve modified 866 coefficients.
Aggregator did 48 substitutions.
Reduced MIP has 745 rows, 510 columns, and 2454 nonzeros.
Reduced MIP has 6 binaries, 0 generals, 0 SOSs, and 0 indicators.
Presolve time = 0.00 sec. (2.70 ticks)
Found incumbent of value 4.8218544e+09 after 0.00 sec. (3.41 ticks)
Probing time = 0.00 sec. (0.12 ticks)
Tried aggregator 1 time.
Detecting symmetries...
MIP Presolve added 276 rows and 0 columns.
Reduced MIP has 1021 rows, 510 columns, and 3006 nonzeros.
Reduced MIP has 6 binaries, 0 generals, 0 SOSs, and 0 indicators.
Presolve time = 0.00 sec. (7.99 ticks)
Probing time = 0.00 sec. (0.18 ticks)
Clique table members: 2.
MIP emphasis: balance optimality and feasibility.
MIP search method: dynamic search.
Parallel mode: none, using 1 thread.
Initializing dual steep norms . . .

Iteration log . . .
Iteration:     1   Dual objective     =             0.000000
Iteration:   110   Dual objective     =      85234800.000000
Perturbation started.
Iteration:   153   Dual objective     =      85234800.000000
Iteration:   254   Dual objective     =      90965012.535259
Removing perturbation.
Root relaxation solution time = 0.06 sec. (4.68 ticks)

        Nodes                                         Cuts/
   Node  Left     Objective  IInf  Best Integer    Best Bound    ItCnt     Gap

*     0+    0                       4.82185e+09        0.0000           100.00%
Found incumbent of value 4.8218544e+09 after 0.06 sec. (17.23 ticks)
      0     0   9.31204e+07     3   4.82185e+09   9.31204e+07      303   98.07%
*     0+    0                       1.07423e+08   9.31204e+07            13.31%
Found incumbent of value 1.0742336e+08 after 0.06 sec. (21.03 ticks)
      0     0   9.82175e+07     5   1.07423e+08     Cuts: 269      452    8.57%
      0     0   1.01714e+08     6   1.07423e+08     Cuts: 275      572    5.31%
      0     0   1.03254e+08     6   1.07423e+08     Cuts: 151      689    3.88%
      0     0   1.03405e+08     3   1.07423e+08      Cuts: 75      744    3.74%
Detecting symmetries...
      0     2   1.03405e+08     3   1.07423e+08   1.03562e+08      744    3.59%
Elapsed time = 0.09 sec. (70.54 ticks, tree = 0.01 MB, solutions = 2)

Clique cuts applied:  1
Cover cuts applied:  1
Flow cuts applied:  3
Mixed integer rounding cuts applied:  187
Zero-half cuts applied:  1
Gomory fractional cuts applied:  3

Root node processing (before b&c):
  Real time             =    0.09 sec. (70.54 ticks)
Sequential b&c:
  Real time             =    0.02 sec. (1.18 ticks)
                          ------------
Total (root+branch&cut) =    0.11 sec. (71.72 ticks)

--- MIP status (101): integer optimal solution.
--- Cplex Time: 0.11sec (det. 71.72 ticks)

--- Fixing integer variables and solving final LP...

Version identifier: 20.1.0.0 | 2020-11-10 | 9bedb6d68
CPXPARAM_Advance                                 2
CPXPARAM_Threads                                 1
CPXPARAM_MIP_Display                             4
CPXPARAM_MIP_Tolerances_AbsMIPGap                0
Tried aggregator 1 time.
LP Presolve eliminated 1250 rows and 200 columns.
Aggregator did 96 substitutions.
Reduced LP has 168 rows, 336 columns, and 552 nonzeros.
Presolve time = 0.00 sec. (1.02 ticks)
Symmetry aggregator did 483 additional substitutions.
Initializing dual steep norms . . .

Iteration log . . .
Iteration:     1   Dual objective     =      19425000.000000

Dual crossover.
  Dual:  Fixed no variables.
  Primal:  Fixed no variables.

--- Fixed MIP status (1): optimal.
--- Cplex Time: 0.03sec (det. 1.76 ticks)


Proven optimal solution
MIP Solution:    107423361.000000    (834 iterations, 3 nodes)
Final Solve:     107423361.000000    (6 iterations)

Best possible:   107423361.000000
Absolute gap:            0.000000
Relative gap:            0.000000

--- Reading solution for model Master
--- 6_node_3_only_M.gms(227) 4 Mb  6 secs
--- Executing after solve: elapsed 0:00:08.097
--- 6_node_3_only_M.gms(228) 4 Mb
--- GDX File (execute_unload) Z:\MitarbeiterOrdner\Bernecker\GitHub Desktop Project Foulder\SARO-Dunkelflaute\ARO_6nodeTest\check_only_Master.gdx
*** Status: Normal completion
--- Job 6_node_3_only_M.gms Stop 01/08/22 16:32:37 elapsed 0:00:08.744
